instances/shortest_path/discrete/shortest_path_8_9.lp
\ Model nohadani_8_9
\ LP format - for model browsing. Use MPS format to capture full model detail.
\ Signature: 0x229cff0c87735314
Minimize
  25.49509756796392 y[0,1] + 25.07987240796891 y[0,2]
   + 17.69180601295413 y[0,3] + 22.09072203437452 y[0,5]
   + 44.18144406874904 y[0,6] + 45.88027898781785 y[0,7]
   + 25.49509756796392 y[1,0] + 49.4064773081425 y[1,2]
   + 43.18564576337837 y[1,3] + 44.2944691807002 y[1,5]
   + 25.07987240796891 y[2,0] + 49.4064773081425 y[2,1]
   + 11.40175425099138 y[2,3] + 41.72529209005013 y[2,4]
   + 8.062257748298549 y[2,5] + 43.41658669218482 y[2,6]
   + 21.21320343559643 y[2,7] + 17.69180601295413 y[3,0]
   + 43.18564576337837 y[3,1] + 11.40175425099138 y[3,2]
   + 48.25971404805462 y[3,4] + 14.86606874731851 y[3,5]
   + 34.88552708502482 y[3,6] + 32 y[3,7] + 41.72529209005013 y[4,2]
   + 48.25971404805462 y[4,3] + 48.41487374764082 y[4,5]
   + 56.1426753904728 y[4,6] + 28.16025568065745 y[4,7]
   + 22.09072203437452 y[5,0] + 44.2944691807002 y[5,1]
   + 8.062257748298549 y[5,2] + 14.86606874731851 y[5,3]
   + 48.41487374764082 y[5,4] + 49.39635614091387 y[5,6]
   + 24.59674775249769 y[5,7] + 44.18144406874904 y[6,0]
   + 43.41658669218482 y[6,2] + 34.88552708502482 y[6,3]
   + 56.1426753904728 y[6,4] + 49.39635614091387 y[6,5]
   + 45.88027898781785 y[7,0] + 21.21320343559643 y[7,2] + 32 y[7,3]
   + 28.16025568065745 y[7,4] + 24.59674775249769 y[7,5] + x[0,1] + x[0,2]
   + x[0,3] + x[0,5] + x[0,6] + x[0,7] + x[1,0] + x[1,2] + x[1,3] + x[1,5]
   + x[2,0] + x[2,1] + x[2,3] + x[2,4] + x[2,5] + x[2,6] + x[2,7] + x[3,0]
   + x[3,1] + x[3,2] + x[3,4] + x[3,5] + x[3,6] + x[3,7] + x[4,2] + x[4,3]
   + x[4,5] + x[4,6] + x[4,7] + x[5,0] + x[5,1] + x[5,2] + x[5,3] + x[5,4]
   + x[5,6] + x[5,7] + x[6,0] + x[6,2] + x[6,3] + x[6,4] + x[6,5] + x[7,0]
   + x[7,2] + x[7,3] + x[7,4] + x[7,5] + 2.549509756796393 r[0,1]
   + 2.507987240796891 r[0,2] + 1.769180601295413 r[0,3]
   + 2.209072203437452 r[0,5] + 4.418144406874904 r[0,6]
   + 4.588027898781784 r[0,7] + 2.549509756796393 r[1,0]
   + 4.94064773081425 r[1,2] + 4.318564576337837 r[1,3]
   + 4.42944691807002 r[1,5] + 2.507987240796891 r[2,0]
   + 4.94064773081425 r[2,1] + 1.140175425099138 r[2,3]
   + 4.172529209005013 r[2,4] + 0.8062257748298549 r[2,5]
   + 4.341658669218482 r[2,6] + 2.121320343559643 r[2,7]
   + 1.769180601295413 r[3,0] + 4.318564576337837 r[3,1]
   + 1.140175425099138 r[3,2] + 4.825971404805462 r[3,4]
   + 1.486606874731851 r[3,5] + 3.488552708502482 r[3,6] + 3.2 r[3,7]
   + 4.172529209005013 r[4,2] + 4.825971404805462 r[4,3]
   + 4.841487374764082 r[4,5] + 5.61426753904728 r[4,6]
   + 2.816025568065745 r[4,7] + 2.209072203437452 r[5,0]
   + 4.42944691807002 r[5,1] + 0.8062257748298549 r[5,2]
   + 1.486606874731851 r[5,3] + 4.841487374764082 r[5,4]
   + 4.939635614091388 r[5,6] + 2.459674775249769 r[5,7]
   + 4.418144406874904 r[6,0] + 4.341658669218482 r[6,2]
   + 3.488552708502482 r[6,3] + 5.61426753904728 r[6,4]
   + 4.939635614091388 r[6,5] + 4.588027898781784 r[7,0]
   + 2.121320343559643 r[7,2] + 3.2 r[7,3] + 2.816025568065745 r[7,4]
   + 2.459674775249769 r[7,5]
Subject To
 flow_cons_inner_nodes[0]: - y[0,1] - y[0,2] - y[0,3] - y[0,5] - y[0,6]
   - y[0,7] + y[1,0] + y[2,0] + y[3,0] + y[5,0] + y[6,0] + y[7,0] = 0
 flow_cons_inner_nodes[2]: y[0,2] + y[1,2] - y[2,0] - y[2,1] - y[2,3]
   - y[2,4] - y[2,5] - y[2,6] - y[2,7] + y[3,2] + y[4,2] + y[5,2] + y[6,2]
   + y[7,2] = 0
 flow_cons_inner_nodes[3]: y[0,3] + y[1,3] + y[2,3] - y[3,0] - y[3,1]
   - y[3,2] - y[3,4] - y[3,5] - y[3,6] - y[3,7] + y[4,3] + y[5,3] + y[6,3]
   + y[7,3] = 0
 flow_cons_inner_nodes[5]: y[0,5] + y[1,5] + y[2,5] + y[3,5] + y[4,5]
   - y[5,0] - y[5,1] - y[5,2] - y[5,3] - y[5,4] - y[5,6] - y[5,7] + y[6,5]
   + y[7,5] = 0
 flow_cons_inner_nodes[6]: y[0,6] + y[2,6] + y[3,6] + y[4,6] + y[5,6]
   - y[6,0] - y[6,2] - y[6,3] - y[6,4] - y[6,5] = 0
 flow_cons_inner_nodes[7]: y[0,7] + y[2,7] + y[3,7] + y[4,7] + y[5,7]
   - y[7,0] - y[7,2] - y[7,3] - y[7,4] - y[7,5] = 0
 flow_cons_source: - y[0,1] + y[1,0] + y[1,2] + y[1,3] + y[1,5] - y[2,1]
   - y[3,1] - y[5,1] = 1
 flow_cons_target: y[2,4] + y[3,4] - y[4,2] - y[4,3] - y[4,5] - y[4,6]
   - y[4,7] + y[5,4] + y[6,4] + y[7,4] = 1
 primal_lower: 1.428629455721328 x[0,1] + 1.744259074928787 x[0,2]
   + 4.01797777051803 x[0,3] + 1.02730779259079 x[0,5]
   + 0.9632895830299416 x[0,6] + 2.02796179126286 x[0,7]
   + 0.294400104346481 x[1,0] + 2.510378062406559 x[1,2]
   + 4.214824644071063 x[1,3] + 4.160272026663054 x[1,5]
   + 0.8932281236564499 x[2,0] + 1.14213168511652 x[2,1]
   + 0.1788302142865844 x[2,3] + 3.581519089708523 x[2,4]
   + 0.3174885731300598 x[2,5] + 2.434432549621188 x[2,6]
   + 2.778926078184133 x[2,7] + 2.305921443741217 x[3,0]
   + 3.027854591069664 x[3,1] + 2.150755327966699 x[3,2]
   + 4.133064332706586 x[3,4] + 0.2630566489251521 x[3,5]
   + 2.938106181556103 x[3,6] + 2.584110521828033 x[3,7]
   + 3.05061789936044 x[4,2] + 1.755313230742296 x[4,3]
   + 3.239310030082006 x[4,5] + 2.21551468340606 x[4,6]
   + 0.3553860808788452 x[4,7] + 1.879523540858708 x[5,0]
   + 1.022019745262418 x[5,1] + 1.337187120783665 x[5,2]
   + 3.042385779015046 x[5,3] + 1.376612963382185 x[5,4]
   + 2.759455162056005 x[5,6] + 1.645308918299737 x[5,7]
   + 3.796861725230642 x[6,0] + 3.837267660402319 x[6,2]
   + 4.110031327107198 x[6,3] + 1.762321181918858 x[6,4]
   + 0.2079947745121467 x[6,5] + 0.0425452364653607 x[7,0]
   + 2.247413760356287 x[7,2] + 2.060096285718111 x[7,3]
   + 3.301345493879808 x[7,4] + 1.631056661411461 x[7,5] + 91 u[0,1]
   + 31 u[0,2] + 81 u[0,3] + 14 u[0,5] + 47 u[0,6] + 57 u[0,7] + 4 u[1,0]
   + 15 u[1,2] + 92 u[1,3] + 85 u[1,5] + 63 u[2,0] + 14 u[2,1] + 87 u[2,3]
   + 11 u[2,4] + 64 u[2,5] + 4 u[2,6] + 8 u[2,7] + 71 u[3,0] + 4 u[3,1]
   + 81 u[3,2] + 56 u[3,4] + 7 u[3,5] + 27 u[3,6] + 58 u[3,7] + 32 u[4,2]
   + 95 u[4,3] + 9 u[4,5] + 63 u[4,6] + 13 u[4,7] + 50 u[5,0] + 13 u[5,1]
   + 39 u[5,2] + 35 u[5,3] + 76 u[5,4] + 47 u[5,6] + 36 u[5,7] + 51 u[6,0]
   + 28 u[6,2] + 75 u[6,3] + 66 u[6,4] + 54 u[6,5] + 89 u[7,0] + 29 u[7,2]
   + 37 u[7,3] + 58 u[7,4] + 70 u[7,5] <= 194
 mccormick1[0,1]: - u[0,1] + r[0,1] <= 0
 mccormick1[0,2]: - u[0,2] + r[0,2] <= 0
 mccormick1[0,3]: - u[0,3] + r[0,3] <= 0
 mccormick1[0,5]: - u[0,5] + r[0,5] <= 0
 mccormick1[0,6]: - u[0,6] + r[0,6] <= 0
 mccormick1[0,7]: - u[0,7] + r[0,7] <= 0
 mccormick1[1,0]: - u[1,0] + r[1,0] <= 0
 mccormick1[1,2]: - u[1,2] + r[1,2] <= 0
 mccormick1[1,3]: - u[1,3] + r[1,3] <= 0
 mccormick1[1,5]: - u[1,5] + r[1,5] <= 0
 mccormick1[2,0]: - u[2,0] + r[2,0] <= 0
 mccormick1[2,1]: - u[2,1] + r[2,1] <= 0
 mccormick1[2,3]: - u[2,3] + r[2,3] <= 0
 mccormick1[2,4]: - u[2,4] + r[2,4] <= 0
 mccormick1[2,5]: - u[2,5] + r[2,5] <= 0
 mccormick1[2,6]: - u[2,6] + r[2,6] <= 0
 mccormick1[2,7]: - u[2,7] + r[2,7] <= 0
 mccormick1[3,0]: - u[3,0] + r[3,0] <= 0
 mccormick1[3,1]: - u[3,1] + r[3,1] <= 0
 mccormick1[3,2]: - u[3,2] + r[3,2] <= 0
 mccormick1[3,4]: - u[3,4] + r[3,4] <= 0
 mccormick1[3,5]: - u[3,5] + r[3,5] <= 0
 mccormick1[3,6]: - u[3,6] + r[3,6] <= 0
 mccormick1[3,7]: - u[3,7] + r[3,7] <= 0
 mccormick1[4,2]: - u[4,2] + r[4,2] <= 0
 mccormick1[4,3]: - u[4,3] + r[4,3] <= 0
 mccormick1[4,5]: - u[4,5] + r[4,5] <= 0
 mccormick1[4,6]: - u[4,6] + r[4,6] <= 0
 mccormick1[4,7]: - u[4,7] + r[4,7] <= 0
 mccormick1[5,0]: - u[5,0] + r[5,0] <= 0
 mccormick1[5,1]: - u[5,1] + r[5,1] <= 0
 mccormick1[5,2]: - u[5,2] + r[5,2] <= 0
 mccormick1[5,3]: - u[5,3] + r[5,3] <= 0
 mccormick1[5,4]: - u[5,4] + r[5,4] <= 0
 mccormick1[5,6]: - u[5,6] + r[5,6] <= 0
 mccormick1[5,7]: - u[5,7] + r[5,7] <= 0
 mccormick1[6,0]: - u[6,0] + r[6,0] <= 0
 mccormick1[6,2]: - u[6,2] + r[6,2] <= 0
 mccormick1[6,3]: - u[6,3] + r[6,3] <= 0
 mccormick1[6,4]: - u[6,4] + r[6,4] <= 0
 mccormick1[6,5]: - u[6,5] + r[6,5] <= 0
 mccormick1[7,0]: - u[7,0] + r[7,0] <= 0
 mccormick1[7,2]: - u[7,2] + r[7,2] <= 0
 mccormick1[7,3]: - u[7,3] + r[7,3] <= 0
 mccormick1[7,4]: - u[7,4] + r[7,4] <= 0
 mccormick1[7,5]: - u[7,5] + r[7,5] <= 0
 mccormick2[0,1]: - y[0,1] + r[0,1] <= 0
 mccormick2[0,2]: - y[0,2] + r[0,2] <= 0
 mccormick2[0,3]: - y[0,3] + r[0,3] <= 0
 mccormick2[0,5]: - y[0,5] + r[0,5] <= 0
 mccormick2[0,6]: - y[0,6] + r[0,6] <= 0
 mccormick2[0,7]: - y[0,7] + r[0,7] <= 0
 mccormick2[1,0]: - y[1,0] + r[1,0] <= 0
 mccormick2[1,2]: - y[1,2] + r[1,2] <= 0
 mccormick2[1,3]: - y[1,3] + r[1,3] <= 0
 mccormick2[1,5]: - y[1,5] + r[1,5] <= 0
 mccormick2[2,0]: - y[2,0] + r[2,0] <= 0
 mccormick2[2,1]: - y[2,1] + r[2,1] <= 0
 mccormick2[2,3]: - y[2,3] + r[2,3] <= 0
 mccormick2[2,4]: - y[2,4] + r[2,4] <= 0
 mccormick2[2,5]: - y[2,5] + r[2,5] <= 0
 mccormick2[2,6]: - y[2,6] + r[2,6] <= 0
 mccormick2[2,7]: - y[2,7] + r[2,7] <= 0
 mccormick2[3,0]: - y[3,0] + r[3,0] <= 0
 mccormick2[3,1]: - y[3,1] + r[3,1] <= 0
 mccormick2[3,2]: - y[3,2] + r[3,2] <= 0
 mccormick2[3,4]: - y[3,4] + r[3,4] <= 0
 mccormick2[3,5]: - y[3,5] + r[3,5] <= 0
 mccormick2[3,6]: - y[3,6] + r[3,6] <= 0
 mccormick2[3,7]: - y[3,7] + r[3,7] <= 0
 mccormick2[4,2]: - y[4,2] + r[4,2] <= 0
 mccormick2[4,3]: - y[4,3] + r[4,3] <= 0
 mccormick2[4,5]: - y[4,5] + r[4,5] <= 0
 mccormick2[4,6]: - y[4,6] + r[4,6] <= 0
 mccormick2[4,7]: - y[4,7] + r[4,7] <= 0
 mccormick2[5,0]: - y[5,0] + r[5,0] <= 0
 mccormick2[5,1]: - y[5,1] + r[5,1] <= 0
 mccormick2[5,2]: - y[5,2] + r[5,2] <= 0
 mccormick2[5,3]: - y[5,3] + r[5,3] <= 0
 mccormick2[5,4]: - y[5,4] + r[5,4] <= 0
 mccormick2[5,6]: - y[5,6] + r[5,6] <= 0
 mccormick2[5,7]: - y[5,7] + r[5,7] <= 0
 mccormick2[6,0]: - y[6,0] + r[6,0] <= 0
 mccormick2[6,2]: - y[6,2] + r[6,2] <= 0
 mccormick2[6,3]: - y[6,3] + r[6,3] <= 0
 mccormick2[6,4]: - y[6,4] + r[6,4] <= 0
 mccormick2[6,5]: - y[6,5] + r[6,5] <= 0
 mccormick2[7,0]: - y[7,0] + r[7,0] <= 0
 mccormick2[7,2]: - y[7,2] + r[7,2] <= 0
 mccormick2[7,3]: - y[7,3] + r[7,3] <= 0
 mccormick2[7,4]: - y[7,4] + r[7,4] <= 0
 mccormick2[7,5]: - y[7,5] + r[7,5] <= 0
 mccormick3[0,1]: - y[0,1] - u[0,1] + r[0,1] >= -1
 mccormick3[0,2]: - y[0,2] - u[0,2] + r[0,2] >= -1
 mccormick3[0,3]: - y[0,3] - u[0,3] + r[0,3] >= -1
 mccormick3[0,5]: - y[0,5] - u[0,5] + r[0,5] >= -1
 mccormick3[0,6]: - y[0,6] - u[0,6] + r[0,6] >= -1
 mccormick3[0,7]: - y[0,7] - u[0,7] + r[0,7] >= -1
 mccormick3[1,0]: - y[1,0] - u[1,0] + r[1,0] >= -1
 mccormick3[1,2]: - y[1,2] - u[1,2] + r[1,2] >= -1
 mccormick3[1,3]: - y[1,3] - u[1,3] + r[1,3] >= -1
 mccormick3[1,5]: - y[1,5] - u[1,5] + r[1,5] >= -1
 mccormick3[2,0]: - y[2,0] - u[2,0] + r[2,0] >= -1
 mccormick3[2,1]: - y[2,1] - u[2,1] + r[2,1] >= -1
 mccormick3[2,3]: - y[2,3] - u[2,3] + r[2,3] >= -1
 mccormick3[2,4]: - y[2,4] - u[2,4] + r[2,4] >= -1
 mccormick3[2,5]: - y[2,5] - u[2,5] + r[2,5] >= -1
 mccormick3[2,6]: - y[2,6] - u[2,6] + r[2,6] >= -1
 mccormick3[2,7]: - y[2,7] - u[2,7] + r[2,7] >= -1
 mccormick3[3,0]: - y[3,0] - u[3,0] + r[3,0] >= -1
 mccormick3[3,1]: - y[3,1] - u[3,1] + r[3,1] >= -1
 mccormick3[3,2]: - y[3,2] - u[3,2] + r[3,2] >= -1
 mccormick3[3,4]: - y[3,4] - u[3,4] + r[3,4] >= -1
 mccormick3[3,5]: - y[3,5] - u[3,5] + r[3,5] >= -1
 mccormick3[3,6]: - y[3,6] - u[3,6] + r[3,6] >= -1
 mccormick3[3,7]: - y[3,7] - u[3,7] + r[3,7] >= -1
 mccormick3[4,2]: - y[4,2] - u[4,2] + r[4,2] >= -1
 mccormick3[4,3]: - y[4,3] - u[4,3] + r[4,3] >= -1
 mccormick3[4,5]: - y[4,5] - u[4,5] + r[4,5] >= -1
 mccormick3[4,6]: - y[4,6] - u[4,6] + r[4,6] >= -1
 mccormick3[4,7]: - y[4,7] - u[4,7] + r[4,7] >= -1
 mccormick3[5,0]: - y[5,0] - u[5,0] + r[5,0] >= -1
 mccormick3[5,1]: - y[5,1] - u[5,1] + r[5,1] >= -1
 mccormick3[5,2]: - y[5,2] - u[5,2] + r[5,2] >= -1
 mccormick3[5,3]: - y[5,3] - u[5,3] + r[5,3] >= -1
 mccormick3[5,4]: - y[5,4] - u[5,4] + r[5,4] >= -1
 mccormick3[5,6]: - y[5,6] - u[5,6] + r[5,6] >= -1
 mccormick3[5,7]: - y[5,7] - u[5,7] + r[5,7] >= -1
 mccormick3[6,0]: - y[6,0] - u[6,0] + r[6,0] >= -1
 mccormick3[6,2]: - y[6,2] - u[6,2] + r[6,2] >= -1
 mccormick3[6,3]: - y[6,3] - u[6,3] + r[6,3] >= -1
 mccormick3[6,4]: - y[6,4] - u[6,4] + r[6,4] >= -1
 mccormick3[6,5]: - y[6,5] - u[6,5] + r[6,5] >= -1
 mccormick3[7,0]: - y[7,0] - u[7,0] + r[7,0] >= -1
 mccormick3[7,2]: - y[7,2] - u[7,2] + r[7,2] >= -1
 mccormick3[7,3]: - y[7,3] - u[7,3] + r[7,3] >= -1
 mccormick3[7,4]: - y[7,4] - u[7,4] + r[7,4] >= -1
 mccormick3[7,5]: - y[7,5] - u[7,5] + r[7,5] >= -1
Bounds
Binaries
 y[0,1] y[0,2] y[0,3] y[0,5] y[0,6] y[0,7] y[1,0] y[1,2] y[1,3] y[1,5]
 y[2,0] y[2,1] y[2,3] y[2,4] y[2,5] y[2,6] y[2,7] y[3,0] y[3,1] y[3,2]
 y[3,4] y[3,5] y[3,6] y[3,7] y[4,2] y[4,3] y[4,5] y[4,6] y[4,7] y[5,0]
 y[5,1] y[5,2] y[5,3] y[5,4] y[5,6] y[5,7] y[6,0] y[6,2] y[6,3] y[6,4]
 y[6,5] y[7,0] y[7,2] y[7,3] y[7,4] y[7,5] x[0,1] x[0,2] x[0,3] x[0,5]
 x[0,6] x[0,7] x[1,0] x[1,2] x[1,3] x[1,5] x[2,0] x[2,1] x[2,3] x[2,4]
 x[2,5] x[2,6] x[2,7] x[3,0] x[3,1] x[3,2] x[3,4] x[3,5] x[3,6] x[3,7]
 x[4,2] x[4,3] x[4,5] x[4,6] x[4,7] x[5,0] x[5,1] x[5,2] x[5,3] x[5,4]
 x[5,6] x[5,7] x[6,0] x[6,2] x[6,3] x[6,4] x[6,5] x[7,0] x[7,2] x[7,3]
 x[7,4] x[7,5] u[0,1] u[0,2] u[0,3] u[0,5] u[0,6] u[0,7] u[1,0] u[1,2]
 u[1,3] u[1,5] u[2,0] u[2,1] u[2,3] u[2,4] u[2,5] u[2,6] u[2,7] u[3,0]
 u[3,1] u[3,2] u[3,4] u[3,5] u[3,6] u[3,7] u[4,2] u[4,3] u[4,5] u[4,6]
 u[4,7] u[5,0] u[5,1] u[5,2] u[5,3] u[5,4] u[5,6] u[5,7] u[6,0] u[6,2]
 u[6,3] u[6,4] u[6,5] u[7,0] u[7,2] u[7,3] u[7,4] u[7,5] r[0,1] r[0,2]
 r[0,3] r[0,5] r[0,6] r[0,7] r[1,0] r[1,2] r[1,3] r[1,5] r[2,0] r[2,1]
 r[2,3] r[2,4] r[2,5] r[2,6] r[2,7] r[3,0] r[3,1] r[3,2] r[3,4] r[3,5]
 r[3,6] r[3,7] r[4,2] r[4,3] r[4,5] r[4,6] r[4,7] r[5,0] r[5,1] r[5,2]
 r[5,3] r[5,4] r[5,6] r[5,7] r[6,0] r[6,2] r[6,3] r[6,4] r[6,5] r[7,0]
 r[7,2] r[7,3] r[7,4] r[7,5]
End
