instances/shortest_path/discrete/shortest_path_8_9.kp
32288
194

[1.4286294557213277 1.7442590749287874 4.01797777051803 1.0273077925907903 0.9632895830299416 2.02796179126286 0.29440010434648095 2.510378062406559 4.214824644071063 4.160272026663054 0.8932281236564499 1.1421316851165195 0.17883021428658435 3.5815190897085225 0.3174885731300598 2.434432549621188 2.778926078184133 2.3059214437412168 3.027854591069664 2.1507553279666993 4.133064332706586 0.2630566489251521 2.938106181556103 2.5841105218280327 3.0506178993604403 1.7553132307422963 3.239310030082006 2.2155146834060595 0.35538608087884516 1.879523540858708 1.0220197452624185 1.3371871207836652 3.042385779015046 1.3766129633821853 2.7594551620560046 1.6453089182997374 3.7968617252306425 3.8372676604023193 4.110031327107198 1.7623211819188584 0.20799477451214665 0.04254523646536073 2.247413760356287 2.0600962857181107 3.301345493879808 1.631056661411461]

[91 31 81 14 47 57 4 15 92 85 63 14 87 11 64 4 8 71 4 81 56 7 27 58 32 95 9 63 13 50 13 39 35 76 47 36 51 28 75 66 54 89 29 37 58 70]
